p td 60 90
31 57
31 28
31 20
57 12
57 33
24 42
24 39
24 38
42 43
42 27
28 48
28 35
48 8
48 15
29 53
29 13
29 51
53 3
53 8
35 14
35 19
0 55
0 22
0 9
55 43
55 20
17 36
17 18
17 50
36 50
36 12
39 32
39 37
50 58
10 13
10 37
10 11
13 6
12 22
22 5
18 47
18 49
6 41
6 30
41 38
41 5
15 16
15 46
16 58
16 56
4 32
4 38
4 49
32 1
45 54
45 23
45 25
54 7
54 9
7 21
7 5
21 58
21 26
2 59
2 56
2 40
59 33
59 11
3 34
3 47
34 11
34 44
30 46
30 27
46 44
33 40
40 47
44 43
23 49
23 52
20 52
8 37
14 25
14 26
25 19
19 27
52 1
26 51
9 1
56 51
